21 210 10
0 1 1970316.00
0 2 73519425.00
0 3 73519425.00
0 4 73519425.00
0 5 73519425.00
0 6 73519425.00
0 7 73519425.00
0 8 73519425.00
0 9 73519425.00
0 10 402384.00
0 11 73519425.00
0 12 73519425.00
0 13 73519425.00
0 14 73519425.00
0 15 73519425.00
0 16 73519425.00
0 17 73519425.00
0 18 73519425.00
0 19 73519425.00
0 20 73519425.00
1 2 51656.00
1 3 73519425.00
1 4 73519425.00
1 5 73519425.00
1 6 73519425.00
1 7 73519425.00
1 8 73519425.00
1 9 73519425.00
1 10 73519425.00
1 11 73519425.00
1 12 73519425.00
1 13 73519425.00
1 14 73519425.00
1 15 73519425.00
1 16 73519425.00
1 17 73519425.00
1 18 73519425.00
1 19 73519425.00
1 20 73519425.00
2 3 73519425.00
2 4 73519425.00
2 5 73519425.00
2 6 73519425.00
2 7 73519425.00
2 8 73519425.00
2 9 73519425.00
2 10 73519425.00
2 11 452561.00
2 12 73519425.00
2 13 73519425.00
2 14 73519425.00
2 15 73519425.00
2 16 73519425.00
2 17 73519425.00
2 18 73519425.00
2 19 73519425.00
2 20 3051489.00
3 4 73519425.00
3 5 73519425.00
3 6 73519425.00
3 7 762656.00
3 8 73519425.00
3 9 73519425.00
3 10 73519425.00
3 11 73519425.00
3 12 73519425.00
3 13 73519425.00
3 14 73519425.00
3 15 73519425.00
3 16 73519425.00
3 17 73519425.00
3 18 73519425.00
3 19 73519425.00
3 20 102301.00
4 5 73519425.00
4 6 3500925.00
4 7 73519425.00
4 8 2091285.00
4 9 73519425.00
4 10 73519425.00
4 11 73519425.00
4 12 276983.00
4 13 73519425.00
4 14 73519425.00
4 15 1463887.00
4 16 73519425.00
4 17 73519425.00
4 18 73519425.00
4 19 73519425.00
4 20 73519425.00
5 6 73519425.00
5 7 73519425.00
5 8 73519425.00
5 9 73519425.00
5 10 73519425.00
5 11 73519425.00
5 12 73519425.00
5 13 73519425.00
5 14 73519425.00
5 15 73519425.00
5 16 2035510.00
5 17 4391.00
5 18 73519425.00
5 19 600977.00
5 20 73519425.00
6 7 73519425.00
6 8 73519425.00
6 9 73519425.00
6 10 3080277.00
6 11 2982031.00
6 12 3223942.00
6 13 73519425.00
6 14 73519425.00
6 15 73519425.00
6 16 73519425.00
6 17 73519425.00
6 18 73519425.00
6 19 73519425.00
6 20 73519425.00
7 8 73519425.00
7 9 73519425.00
7 10 73519425.00
7 11 3359899.00
7 12 73519425.00
7 13 73519425.00
7 14 259412.00
7 15 73519425.00
7 16 73519425.00
7 17 73519425.00
7 18 73519425.00
7 19 73519425.00
7 20 73519425.00
8 9 73519425.00
8 10 73519425.00
8 11 73519425.00
8 12 73519425.00
8 13 73519425.00
8 14 73519425.00
8 15 627398.00
8 16 73519425.00
8 17 73519425.00
8 18 73519425.00
8 19 73519425.00
8 20 73519425.00
9 10 73519425.00
9 11 73519425.00
9 12 73519425.00
9 13 2275558.00
9 14 73519425.00
9 15 73519425.00
9 16 73519425.00
9 17 600977.00
9 18 367506.00
9 19 4391.00
9 20 73519425.00
10 11 98246.00
10 12 73519425.00
10 13 73519425.00
10 14 73519425.00
10 15 73519425.00
10 16 73519425.00
10 17 73519425.00
10 18 73519425.00
10 19 73519425.00
10 20 73519425.00
11 12 73519425.00
11 13 73519425.00
11 14 73519425.00
11 15 73519425.00
11 16 73519425.00
11 17 73519425.00
11 18 73519425.00
11 19 73519425.00
11 20 73519425.00
12 13 2491070.00
12 14 73519425.00
12 15 73519425.00
12 16 73519425.00
12 17 73519425.00
12 18 73519425.00
12 19 73519425.00
12 20 73519425.00
13 14 367506.00
13 15 73519425.00
13 16 73519425.00
13 17 73519425.00
13 18 73519425.00
13 19 73519425.00
13 20 73519425.00
14 15 73519425.00
14 16 73519425.00
14 17 73519425.00
14 18 2275558.00
14 19 73519425.00
14 20 73519425.00
15 16 947628.00
15 17 73519425.00
15 18 73519425.00
15 19 73519425.00
15 20 73519425.00
16 17 2031119.00
16 18 73519425.00
16 19 73519425.00
16 20 73519425.00
17 18 73519425.00
17 19 73519425.00
17 20 73519425.00
18 19 73519425.00
18 20 1517813.00
19 20 1880928.00
0
1
2
3
4
5
6
7
8
9
